Route #1: 1 3 11 8 6 9 7 5 1 
Route #2: 1 1 4 16 14 10 1 
Route #3: 1 2 15 18 20 21 17 1 
Route #4: 1 13 19 12 1 

Cost 613.729
Time 0.0825


 * Another infos *

 Iterations: 22 Time: 0.0825 sec - 0.0014 min - 0.0000 horas
0.0000 h 0.0014 min
Problem dimension: 22
